problems/csplib-prob110/ArmiesOfQueens-models/compact/O0/minion/model_1_1-07-solution000001.solution
language Essence 1.3

letting black be {(1, 1), (1, 2), (1, 3), (1, 5), (2, 2), (2, 3)}
$ Here is a simple "visualisation" for the value above.
$ 1 1
$ 1 2
$ 1 3
$ 1 5
$ 2 2
$ 2 3

letting white be {(3, 6), (4, 7), (5, 4), (6, 4), (7, 4), (7, 6)}
$ Here is a simple "visualisation" for the value above.
$ 3 6
$ 4 7
$ 5 4
$ 6 4
$ 7 4
$ 7 6

